c nombre: 30
c densidad: 0.3
p edges 45 290
e 1 5
e 1 6
e 1 7
e 1 11
e 1 14
e 1 19
e 1 26
e 1 28
e 1 35
e 1 38
e 1 42
e 2 5
e 2 10
e 2 16
e 2 17
e 2 19
e 2 34
e 2 36
e 2 39
e 2 40
e 3 4
e 3 14
e 3 15
e 3 21
e 3 24
e 3 26
e 3 30
e 3 32
e 3 34
e 3 41
e 3 42
e 3 45
e 4 7
e 4 9
e 4 14
e 4 19
e 4 33
e 4 36
e 4 38
e 4 40
e 4 44
e 5 11
e 5 15
e 5 17
e 5 20
e 5 21
e 5 25
e 5 30
e 5 31
e 5 34
e 5 40
e 5 42
e 5 44
e 6 9
e 6 12
e 6 14
e 6 15
e 6 17
e 6 18
e 6 20
e 6 21
e 6 23
e 6 25
e 6 29
e 6 30
e 6 32
e 6 39
e 7 10
e 7 12
e 7 13
e 7 20
e 7 23
e 7 24
e 7 25
e 7 30
e 7 34
e 7 37
e 7 43
e 8 10
e 8 11
e 8 14
e 8 18
e 8 24
e 8 28
e 8 29
e 8 31
e 8 33
e 8 34
e 8 40
e 9 16
e 9 20
e 9 22
e 9 23
e 9 31
e 9 33
e 9 42
e 9 43
e 9 44
e 10 11
e 10 13
e 10 17
e 10 23
e 10 28
e 10 29
e 10 31
e 10 32
e 10 37
e 10 38
e 10 40
e 11 12
e 11 15
e 11 20
e 11 22
e 11 24
e 11 26
e 11 27
e 11 29
e 11 31
e 11 33
e 11 34
e 11 39
e 11 40
e 11 43
e 12 13
e 12 16
e 12 26
e 12 29
e 12 34
e 12 36
e 12 41
e 13 16
e 13 19
e 13 20
e 13 23
e 13 27
e 13 31
e 13 34
e 13 35
e 13 36
e 13 37
e 13 39
e 13 40
e 13 42
e 14 16
e 14 17
e 14 19
e 14 28
e 14 29
e 14 32
e 14 35
e 14 41
e 14 43
e 14 44
e 15 16
e 15 17
e 15 22
e 15 23
e 15 25
e 15 28
e 15 32
e 15 34
e 15 38
e 15 39
e 15 41
e 15 44
e 16 18
e 16 21
e 16 22
e 16 23
e 16 25
e 16 29
e 16 31
e 16 33
e 16 34
e 16 35
e 16 36
e 16 39
e 16 40
e 16 43
e 16 44
e 17 32
e 17 36
e 17 41
e 17 44
e 18 20
e 18 22
e 18 23
e 18 30
e 18 33
e 18 36
e 18 43
e 18 44
e 19 28
e 19 35
e 19 36
e 19 38
e 19 41
e 20 25
e 20 29
e 20 30
e 20 36
e 20 39
e 20 40
e 20 42
e 20 43
e 20 45
e 21 23
e 21 26
e 21 27
e 21 28
e 21 31
e 21 38
e 21 41
e 21 45
e 22 24
e 22 26
e 22 27
e 22 30
e 22 32
e 22 37
e 22 43
e 23 26
e 23 28
e 23 30
e 23 35
e 23 43
e 23 44
e 23 45
e 24 27
e 24 28
e 24 37
e 24 39
e 24 42
e 24 45
e 25 26
e 25 31
e 25 32
e 25 36
e 25 37
e 25 43
e 25 44
e 26 33
e 26 36
e 26 40
e 26 43
e 26 45
e 27 32
e 27 39
e 27 40
e 27 41
e 28 33
e 28 36
e 28 37
e 28 38
e 28 40
e 28 42
e 29 45
e 30 32
e 30 33
e 30 36
e 30 38
e 31 33
e 31 35
e 31 43
e 32 45
e 33 37
e 33 40
e 33 42
e 34 41
e 34 42
e 35 39
e 35 40
e 35 43
e 35 44
e 35 45
e 36 38
e 36 39
e 36 40
e 36 41
e 36 43
e 36 44
e 37 41
e 37 44
e 38 44
e 39 40
e 39 41
e 39 43
e 41 44
e 43 45
e 44 45
